s td 372 8 404
b 1 1 74 379
b 2 5 189 305
b 3 8 100 367
b 4 36 134 376
b 5 40 160 382
b 6 74 207 379
b 7 49 76 230
b 8 79 162 233
b 9 100 228 367
b 10 28 103 291
b 11 3 107 238
b 12 45 111 334
b 13 87 117 394
b 14 68 127 326
b 15 98 140 389
b 16 90 142 202
b 17 114 170 387
b 18 188 301 370
b 19 90 157
b 20 216 232 353
b 21 15 221 388
b 22 240 332 365
b 23 153 241 309
b 24 10 63 270
b 25 185 280 284
b 26 93 185
b 27 144 288 359
b 28 237 300 345
b 29 153 245
b 30 213 324 396
b 31 337 369 378
b 32 115 365
b 33 228 265
b 34 181 369 378
b 35 108 181
b 36 207 273
b 37 78 239 384
b 38 46 163 398
b 39 3 110 238
b 40 6 180 402
b 41 10 63 106
b 42 15 96 388
b 43 11 16 380
b 44 28 99 291
b 45 39 173 233
b 46 44 73 192
b 47 45 246 334
b 48 27 46 163
b 49 49 230 303
b 50 52 215 276
b 51 53 120 215
b 52 56 63 106
b 53 31 72 158
b 54 73 192 329
b 55 84 192 329
b 56 78 114 239
b 57 84 183 329
b 58 58 87 394
b 59 93 145 389
b 60 98 106 389
b 61 115 322 370
b 62 208 322 370
b 63 34 120 215
b 64 134 265 376
b 65 138 152 296
b 66 144 359 394
b 67 152 296 358
b 68 54 155 205 357
b 69 157 196 373
b 70 31 158 274
b 71 160 339 382
b 72 162 233 321
b 73 27 163 356
b 74 173 229 233
b 75 180 313 402
b 76 183 320 329
b 77 189 253 305
b 78 11 193 316
b 79 186 198 200 222
b 80 130 186 222
b 81 208 322 363
b 82 34 215 276
b 83 130 222 285
b 84 31 229 233
b 85 197 230 303
b 86 232 275 353
b 87 237 295 345
b 88 110 212 238
b 89 33 114 239
b 90 70 245 382
b 91 70 339 382
b 92 70 328 339
b 93 56 141 247 355
b 94 65 265 376
b 95 271 279 316
b 96 47 273 373
b 97 31 274 313
b 98 34 244 276 352
b 99 34 244 321
b 100 48 244 321
b 101 99 291 344
b 102 105 118 293 393
b 103 105 118 347
b 104 296 320 358
b 105 253 305 399
b 106 31 313 402
b 107 31 179 233 402
b 108 233 321 402
b 109 11 279 316
b 110 320 329 358
b 111 68 326 402
b 112 246 287 334
b 113 2 328 339
b 114 99 294 310 344
b 115 295 325 345
b 116 220 295 325 354
b 117 206 220 295
b 118 55 168 206 220
b 119 168 206 220
b 120 106 168 206
b 121 24 106 206
b 122 275 292 353
b 123 213 359 394
b 124 58 213 394
b 125 58 113 213
b 126 113 213 396
b 127 209 278 346 361
b 128 11 122 380
b 129 96 176 388
b 130 106 145 389
b 131 113 209 396
b 132 7 289 299 362
b 133 9 29 333 372
b 134 4 20 92 96 375 402
b 135 20 92 96 119 225 375 383 402
b 136 20 119 209 225 264 375 383 402
b 137 12 20 209 264 268 375 399 402
b 138 12 20 224 268 375 399 402
b 139 12 20 224 242 268 399 402
b 140 20 122 126 224 242 399 402
b 141 20 68 122 126 402
b 142 20 68 122 126 137
b 143 68 122 126 137 358
b 144 122 126 137 358 403
b 145 122 329 358 403
b 146 122 279 329 403
b 147 11 122 279 329
b 148 126 137 283 403
b 149 126 259 283 403
b 150 166 259 283 403
b 151 137 175 358 403
b 152 20 68 137 381
b 153 122 126 196 224 242 303 399
b 154 47 126 196 224 242 303
b 155 47 196 242 303 373
b 156 223 242 303 373
b 157 197 223 303 373
b 158 122 196 242 275 303 399
b 159 122 196 275 303 311 391 399
b 160 71 122 196 275 303 311 391
b 161 71 122 196 303 307 311 391
b 162 71 122 196 307 311 319 391
b 163 122 196 286 307 319 391
b 164 122 196 286 319 391 400
b 165 61 122 196 286 400
b 166 61 99 122 227 400
b 167 61 62 99 227 400
b 168 62 99 294 400
b 169 62 191 294 400
b 170 62 77 191 294
b 171 62 99 294 310
b 172 61 122 227 314
b 173 252 286 319 391 400
b 174 64 252 319 391 400
b 175 64 82 252 391 400
b 176 64 82 101 391
b 177 64 82 203 252
b 178 82 252 282 400
b 179 71 302 307 311 319 391
b 180 71 251 302 307 319
b 181 71 251 255 302
b 182 251 307 319 374
b 183 302 311 319 350 391
b 184 71 85 196 303 307
b 185 275 311 356 391 399
b 186 267 356 391 399
b 187 275 292 311 356
b 188 12 224 242 248 268
b 189 57 224 242 248
b 190 12 248 268 349
b 191 224 268 298 375
b 192 12 24 209 264 268 375 399
b 193 12 23 24 264 268 375 399
b 194 12 23 24 264 268 290 399
b 195 23 24 264 290 323
b 196 23 264 269 290 323
b 197 23 130 264 269 323
b 198 22 23 130 269
b 199 130 264 315 323
b 200 130 136 264 315
b 201 130 269 285 323
b 202 12 23 24 106 268 290 399
b 203 12 23 106 268 290 366 399
b 204 12 23 106 268 297 366 399
b 205 12 23 268 297 364 366
b 206 12 234 268 297 364
b 207 25 234 268 364
b 208 234 297 364 377
b 209 234 266 297 377
b 210 23 261 364 366
b 211 23 201 261 364
b 212 12 106 297 328 366 399
b 213 12 133 297 328 399
b 214 133 297 328 399 404
b 215 88 297 328 404
b 216 133 253 328 399 404
b 217 212 253 328 404
b 218 12 133 385 399
b 219 133 260 385 399
b 220 106 297 328 348 366
b 221 135 297 348 366
b 222 106 145 290 366
b 223 24 113 209 264
b 224 119 209 225 264 306 383
b 225 119 209 225 264 306 331
b 226 165 209 225 264 306 331
b 227 89 165 306 331
b 228 165 209 235 264 331
b 229 209 235 264 331 401
b 230 108 209 235 264 401
b 231 108 209 235 351 401
b 232 108 209 346 351 401
b 233 94 108 346 351
b 234 209 278 346 351 401
b 235 108 235 304 351 401
b 236 108 116 304 351 401
b 237 116 150 304 401
b 238 108 116 199 304
b 239 97 235 331 401
b 240 102 165 235 331
b 241 119 169 306 331
b 242 119 194 225 306 383
b 243 92 96 119 156 225 330 383 402
b 244 96 119 131 156 219 330 383 402
b 245 96 119 131 156 219 263 330 402
b 246 96 131 156 167 219 263 330 402
b 247 96 131 156 167 263 312 330 402
b 248 128 131 167 312 330
b 249 17 128 167 312
b 250 60 96 156 167 263 312 402
b 251 51 60 96 167 263 312 402
b 252 51 60 96 167 263 289 402
b 253 21 51 60 96 289 402
b 254 21 51 96 289 299 402
b 255 21 96 147 178 299 402
b 256 21 96 147 178 318 402
b 257 96 147 178 262 318 402
b 258 96 178 204 262 318 402
b 259 96 164 178 204 262 402
b 260 148 164 178 204 262 402
b 261 148 164 178 262 321 402
b 262 105 148 164 178 262 321
b 263 33 105 148 164 178 321
b 264 33 75 105 148 164 321
b 265 33 75 105 148 387
b 266 33 75 148 340 387
b 267 33 114 340 387
b 268 148 159 340 387
b 269 33 75 317 340
b 270 75 164 218 321
b 271 33 105 143 178 321
b 272 33 112 143 321
b 273 105 143 178 347
b 274 148 164 204 262 272
b 275 164 204 256 272
b 276 147 262 318 390
b 277 21 81 147 318
b 278 21 147 178 257 299
b 279 21 51 289 299 362
b 280 51 59 167 263 289
b 281 51 60 124 167 312
b 282 60 96 156 176
b 283 38 156 312 330
b 284 131 132 167 219 263
b 285 41 119 219 263
b 286 119 131 219 342 383
b 287 92 156 225 330 368 383
b 288 92 156 330 368 371
b 289 92 156 277 330 371
b 290 151 277 330 371
b 291 92 226 277 371
b 292 4 20 92 96 360 375
b 293 4 20 92 96 177 360
b 294 19 92 177 360
b 295 4 20 177 327 360
b 296 4 83 177 327
b 297 66 83 177 327
b 298 20 231 327 360
b 299 13 141 171 184
b 300 104 141 171 184
b 301 91 104 141 184
b 302 56 91 141 355
b 303 56 91 104 141
b 304 27 292 311 356
b 305 29 333 338 372
b 306 205 333 338 372
b 307 65 205 333 372
b 308 65 333 372 376
b 309 42 65 333 376
b 310 161 205 338 372
b 311 30 62 77 191
b 312 35 214 246 308
b 313 37 136 264 315
b 314 43 231 327 360
b 315 48 112 143 321
b 316 50 169 306 331
b 317 54 161 205 357
b 318 161 205 338 357
b 319 56 91 104 106
b 320 12 69 248 349
b 321 80 164 204 256
b 322 86 145 290 366
b 323 91 104 106 139
b 324 2 104 106 139
b 325 2 106 139 328
b 326 106 139 328 348
b 327 95 266 297 377
b 328 110 212 253 404
b 329 121 197 223 373
b 330 123 260 385 399
b 331 125 251 255 302
b 332 32 149 254 287
b 333 71 85 154 303
b 334 172 201 261 364
b 335 82 182 282 400
b 336 178 187 257 299
b 337 42 65 376
b 338 42 65 196
b 339 65 126 196
b 340 166 210 281 283
b 341 166 259 281 283
b 342 214 246 258 308
b 343 246 258 287 308
b 344 32 258 287 308
b 345 32 254 287 308
b 346 32 217 254 308
b 347 246 250 258 287
b 348 190 217 254
b 349 14 190 254
b 350 14 67 190
b 351 18 67 190
b 352 18 67 268
b 353 67 268 298
b 354 236 327 386 392
b 355 243 302 311 350
b 356 174 322 363 399
b 357 174 211 249 399
b 358 129 174 249 395 399
b 359 129 146 249 395 399
b 360 146 195 249 399
b 361 146 195 397 399
b 362 174 363 395 399
b 363 129 174 343 395
b 364 20 68 335 381
b 365 99 122 227 336
b 366 146 195 341 397
b 367 195 356 397 399
b 368 267 356 397 399
b 369 109 327 386 392
b 370 26 109 327 392
b 371 26 66 109 327
b 372 66 83 109 327
1 6
2 77
3 9
4 64
5 71
6 36
7 49
8 72
9 33
10 44
11 39
12 47
13 58
14 111
15 60
16 19
17 267
18 62
19 69
20 86
21 42
22 32
23 29
24 41
25 26
26 59
27 66
28 87
29 90
30 126
31 34
32 61
33 94
34 35
35 230
36 96
37 56
38 48
39 88
40 75
41 52
42 129
43 128
44 101
45 74
46 54
47 112
48 73
49 85
50 82
51 63
52 319
53 70
54 55
55 57
56 89
57 76
58 124
59 130
60 130
61 62
62 81
63 82
64 94
65 67
66 123
67 104
68 317
69 155
70 97
71 91
72 108
73 304
74 84
75 106
76 110
77 105
78 109
79 80
80 83
81 356
82 98
83 201
84 107
85 157
86 122
87 115
88 328
89 267
90 91
91 92
92 113
93 302
94 337
95 109
96 155
97 106
98 99
99 100
100 315
101 114
102 103
103 273
104 110
105 216
106 107
107 108
108 261
109 147
110 145
111 141
112 343
113 325
114 171
115 116
116 117
117 119
118 119
119 120
120 121
121 202
122 187
123 124
124 125
125 126
126 131
127 234
128 147
129 282
130 222
131 223
132 279
133 305
134 135
134 292
135 136
135 243
136 137
136 224
137 138
137 192
138 139
138 191
139 140
139 188
140 141
140 153
141 142
142 143
142 152
143 144
144 145
144 148
144 151
145 146
146 147
148 149
149 150
150 341
152 364
153 339
153 154
153 158
154 155
155 156
156 157
157 329
158 159
159 160
159 185
160 161
161 162
161 184
162 163
162 179
163 164
164 165
164 173
165 166
166 365
166 167
166 172
167 168
168 169
168 171
169 170
170 311
173 174
174 175
175 176
175 177
175 178
178 335
179 180
179 183
180 181
180 182
181 331
183 355
184 333
185 186
185 187
186 368
187 304
188 189
188 190
190 320
191 353
192 193
192 223
193 194
194 195
194 202
195 196
196 197
197 198
197 199
197 201
199 200
200 313
202 203
203 204
203 222
204 205
204 212
205 206
205 210
206 207
206 208
208 209
209 327
210 211
211 334
212 213
212 220
213 214
213 218
214 215
214 216
216 217
217 328
218 219
219 330
220 326
220 221
222 322
224 225
224 242
225 226
225 241
226 227
226 228
228 229
228 240
229 230
229 239
230 231
231 232
231 235
232 233
232 234
235 236
236 237
236 238
241 316
243 244
243 287
244 245
244 286
245 246
245 285
246 247
246 284
247 248
247 250
247 283
248 249
250 251
250 282
251 252
251 281
252 253
252 280
253 254
254 255
254 279
255 256
255 278
256 257
256 277
257 258
257 276
258 259
259 260
260 261
260 274
261 262
262 263
263 264
263 271
264 265
264 270
265 266
266 267
266 268
266 269
271 272
271 273
272 315
274 275
275 321
278 336
287 288
288 289
289 290
289 291
292 293
293 294
293 295
295 296
295 298
296 297
297 372
298 314
299 300
300 301
301 303
302 303
303 319
305 306
306 310
306 307
307 308
308 309
309 337
310 318
312 342
317 318
319 323
323 324
324 325
325 326
332 345
337 338
338 339
340 341
342 343
343 347
343 344
344 345
345 346
346 348
348 349
349 350
350 351
351 352
352 353
354 369
356 362
357 358
358 362
358 363
358 359
359 360
360 361
361 366
361 367
367 368
369 370
370 371
371 372
